p cnf 132 440
3 1 0
3 -2 0
-1 2 -3 0
4 -3 0
4 -3 0
3 -4 0
4 2 -5 0
-4 -2 -5 0
4 -2 5 0
-4 2 5 0
8 -6 0
8 7 0
6 -7 -8 0
10 8 0
10 9 0
-8 -9 -10 0
-14 12 0
-14 -13 0
-12 13 14 0
15 -7 -16 0
-15 7 -16 0
15 7 16 0
-15 -7 16 0
-17 14 0
-17 -16 0
-14 16 17 0
11 -17 -18 0
-11 17 -18 0
11 17 18 0
-11 -17 18 0
-19 10 0
-19 -18 0
-10 18 19 0
-20 -5 0
-20 19 0
5 -19 20 0
1 -21 0
-1 -21 0
-22 21 0
-22 1 0
-21 -1 22 0
-23 20 0
-23 22 0
-20 -22 23 0
24 11 0
24 9 0
-11 -9 -24 0
26 24 0
26 25 0
-24 -25 -26 0
7 -26 -27 0
-7 26 -27 0
7 26 27 0
-7 -26 27 0
-28 23 0
-28 -27 0
-23 27 28 0
-29 9 0
-29 25 0
-9 -25 29 0
-7 30 -31 0
7 -30 -31 0
-7 -30 31 0
7 30 31 0
8 31 -32 0
-8 -31 -32 0
8 -31 32 0
-8 31 32 0
-33 -32 0
-33 24 0
32 -24 33 0
34 10 0
34 -33 0
-10 33 -34 0
-35 9 0
-35 4 0
-9 -4 35 0
36 -35 0
36 7 0
35 -7 -36 0
-34 -36 -37 0
34 36 -37 0
-34 36 37 0
34 -36 37 0
38 -29 0
38 -37 0
29 37 -38 0
24 -6 -40 0
-24 6 -40 0
24 6 40 0
-24 -6 40 0
-39 -40 -41 0
39 40 -41 0
-39 40 41 0
39 -40 41 0
-42 -41 0
-42 2 0
41 -2 42 0
43 -42 0
43 -14 0
42 14 -43 0
-44 -38 0
-44 -43 0
38 43 44 0
45 28 0
45 44 0
-28 -44 -45 0
47 -46 0
47 -16 0
46 16 -47 0
-48 47 0
-48 -30 0
-47 30 48 0
48 49 -50 0
-48 -49 -50 0
48 -49 50 0
-48 49 50 0
51 25 0
51 50 0
-25 -50 -51 0
-52 -11 0
-52 -2 0
11 2 52 0
32 52 -53 0
-32 -52 -53 0
32 -52 53 0
-32 52 53 0
19 53 -54 0
-19 -53 -54 0
19 -53 54 0
-19 53 54 0
55 -26 0
55 -33 0
26 33 -55 0
56 54 0
56 -55 0
-54 55 -56 0
-57 51 0
-57 -56 0
-51 56 57 0
45 57 -58 0
-45 -57 -58 0
45 -57 58 0
-45 57 58 0
16 46 -59 0
-16 -46 -59 0
16 -46 59 0
-16 46 59 0
-60 48 0
-60 59 0
-48 -59 60 0
-61 46 0
-61 60 0
-46 -60 61 0
39 47 -62 0
-39 -47 -62 0
39 -47 62 0
-39 47 62 0
63 -62 0
63 -41 0
62 41 -63 0
-63 -13 -64 0
63 13 -64 0
-63 13 64 0
63 -13 64 0
-65 41 0
-65 47 0
-41 -47 65 0
-66 -47 0
-66 -33 0
47 33 66 0
67 -65 0
67 66 0
65 -66 -67 0
68 -64 0
68 -67 0
64 67 -68 0
69 59 0
69 39 0
-59 -39 -69 0
-9 69 -70 0
9 -69 -70 0
-9 -69 70 0
9 69 70 0
-71 68 0
-71 70 0
-68 -70 71 0
-61 -71 -72 0
61 71 -72 0
-61 71 72 0
61 -71 72 0
-73 15 0
-73 -32 0
-15 32 73 0
-1 -73 -74 0
1 73 -74 0
-1 73 74 0
1 -73 74 0
-21 7 -75 0
21 -7 -75 0
-21 -7 75 0
21 7 75 0
-76 -1 0
-76 -75 0
1 75 76 0
-77 -46 0
-77 -76 0
46 76 77 0
-78 74 0
-78 77 0
-74 -77 78 0
-78 21 -79 0
78 -21 -79 0
-78 -21 79 0
78 21 79 0
-80 49 0
-80 50 0
-49 -50 80 0
81 -73 0
81 47 0
73 -47 -81 0
81 -15 -82 0
-81 15 -82 0
81 15 82 0
-81 -15 82 0
-83 82 0
-83 -16 0
-82 16 83 0
-84 1 0
-84 83 0
-1 -83 84 0
85 -50 0
85 -84 0
50 84 -85 0
86 -4 0
86 26 0
4 -26 -86 0
87 85 0
87 -86 0
-85 86 -87 0
88 -80 0
88 87 0
80 -87 -88 0
89 -62 0
89 26 0
62 -26 -89 0
-90 -89 0
-90 -73 0
89 73 90 0
-92 -91 0
-92 75 0
91 -75 92 0
90 -92 -93 0
-90 92 -93 0
90 92 93 0
-90 -92 93 0
-94 88 0
-94 -93 0
-88 93 94 0
-95 -21 0
-95 -14 0
21 14 95 0
-96 -15 0
-96 -30 0
15 30 96 0
-97 8 0
-97 49 0
-8 -49 97 0
-98 97 0
-98 -26 0
-97 26 98 0
15 98 -99 0
-15 -98 -99 0
15 -98 99 0
-15 98 99 0
100 -96 0
100 -99 0
96 99 -100 0
101 -95 0
101 100 0
95 -100 -101 0
-94 101 -102 0
94 -101 -102 0
-94 -101 102 0
94 101 102 0
103 -79 0
103 -102 0
79 102 -103 0
104 97 0
104 -95 0
-97 95 -104 0
-6 49 -105 0
6 -49 -105 0
-6 -49 105 0
6 49 105 0
106 -2 0
106 105 0
2 -105 -106 0
15 -106 -107 0
-15 106 -107 0
15 106 107 0
-15 -106 107 0
108 104 0
108 107 0
-104 -107 -108 0
-109 -35 0
-109 9 0
35 -9 109 0
110 -108 0
110 -109 0
108 109 -110 0
-103 110 -111 0
103 -110 -111 0
-103 -110 111 0
103 110 111 0
-112 72 0
-112 111 0
-72 -111 112 0
-58 -112 -113 0
58 112 -113 0
-58 112 113 0
58 -112 113 0
-17 83 -114 0
17 -83 -114 0
-17 -83 114 0
17 83 114 0
106 -25 -115 0
-106 25 -115 0
106 25 115 0
-106 -25 115 0
114 115 -116 0
-114 -115 -116 0
114 -115 116 0
-114 115 116 0
39 17 -117 0
-39 -17 -117 0
39 -17 117 0
-39 17 117 0
-118 117 0
-118 105 0
-117 -105 118 0
119 116 0
119 118 0
-116 -118 -119 0
120 35 0
120 24 0
-35 -24 -120 0
-119 -120 -121 0
119 120 -121 0
-119 120 121 0
119 -120 121 0
122 29 0
122 -29 0
-123 -30 0
-123 -122 0
30 122 123 0
-121 123 -124 0
121 -123 -124 0
-121 -123 124 0
121 123 124 0
125 14 0
125 -16 0
-14 16 -125 0
127 -78 0
127 -126 0
78 126 -127 0
-128 125 0
-128 127 0
-125 -127 128 0
129 82 0
129 50 0
-82 -50 -129 0
130 128 0
130 129 0
-128 -129 -130 0
-124 -130 -131 0
124 130 -131 0
-124 130 131 0
124 -130 131 0
132 -113 0
132 -131 0
113 131 -132 0
-130 99 -63 10 0
-3 -112 97 0
46 -77 0
39 30 114 0
-87 -70 0
-36 30 -107 -6 -80 46 0
-95 -75 -2 24 0
-46 38 -97 -62 -51 -6 0
-109 120 -113 0
112 -43 -39 0
101 -66 102 -58 0
95 25 0
-50 69 -117 12 68 0
-101 79 -11 -54 38 0
-121 132 -3 -22 -9 -67 0
48 33 27 -80 0
2 -70 51 66 -73 -108 0
-57 -86 127 120 -51 6 0
64 50 98 -119 0
102 2 31 -110 27 52 0
44 8 -76 0
-127 22 -86 -28 36 0
-100 131 85 -40 -29 77 0
113 8 0
61 -66 101 -32 0
-45 62 -132 46 0
-69 -34 -77 -56 -127 0
-78 -63 0
39 -38 -82 22 0
64 33 70 -114 -12 0
-14 -118 -61 -101 -71 0
-96 -6 28 118 0
103 35 106 0
-80 -20 -98 -42 0
60 62 -118 -38 -116 0
119 -31 106 1 0
71 -127 102 -87 -64 0
74 -3 1 0
17 55 14 98 0
-36 43 74 -51 0
-97 -107 -37 -48 -129 0
-93 116 131 84 0
-83 -12 -100 -3 88 0
16 -106 0
7 17 -1 -127 6 0
79 -82 0
-33 62 -52 -68 -101 0
-118 36 -20 0
27 61 -98 -13 -85 29 0
25 104 -113 30 -117 0
-81 -72 0
123 121 0
-6 49 16 11 99 0
-62 -14 0
-88 -73 62 120 -8 71 0
89 10 31 -18 75 34 0
-80 126 0
132 0
